benchmarks/bfuzz0/2224324166499138181525231652221231990.smt2
(set-logic QF_FP)
(declare-const x0 (_ FloatingPoint 8 24))
(declare-const x1 (_ FloatingPoint 8 24))
(declare-const x2 (_ FloatingPoint 8 24))
(declare-const x3 (_ FloatingPoint 8 24))
(declare-const x4 (_ FloatingPoint 8 24))
(declare-const x5 (_ FloatingPoint 8 24))
(declare-const x6 (_ FloatingPoint 8 24))
(declare-const x7 (_ FloatingPoint 8 24))
(declare-const x8 (_ FloatingPoint 8 24))
(declare-const x9 (_ FloatingPoint 8 24))
(assert (fp.lt (fp.neg x6) (fp.neg x7)))
(assert (fp.gt (fp.neg x8) (fp.neg x1)))
(assert (fp.geq (fp.neg x1) (fp.add RNE x0 x7)))
(assert (fp.geq (fp.neg x7) (fp.neg x1)))
(assert (fp.lt (fp.mul RNE x3 x5) (fp.mul RNE x0 x1)))
(assert (fp.eq (fp.add RNE x2 x0) (fp.neg x3)))
(assert (fp.eq (fp.div RNE x9 x4) (fp.div RNE x1 x5)))
(assert (fp.leq (fp.sub RNE x3 x8) (fp.mul RNE x0 x5)))
(assert (fp.leq (fp.sub RNE x4 x6) (fp.mul RNE x3 x2)))
(check-sat)
