db/data/2224324166499138181525231652221231990.z3.out
sat
-------------------
18.087563988
